sat
(= |goto_symex::&92;guard#3| false)
(= |goto_symex::&92;guard#4| false)
(= |goto_symex::&92;guard#5| true)
(= |goto_symex::&92;guard#6| false)
(= |goto_symex::&92;guard#7| false)
(= |goto_symex::&92;guard#8| true)
(= |goto_symex::&92;guard#9| false)
(= |goto_symex::&92;guard#10| true)
(= |goto_symex::&92;guard#11| true)
(= |goto_symex::&92;guard#12| false)
(= |goto_symex::&92;guard#13| true)
(= |goto_symex::&92;guard#14| true)
(= |goto_symex::&92;guard#15| true)
(= |goto_symex::&92;guard#16| false)
(= |goto_symex::&92;guard#17| false)
(= |goto_symex::&92;guard#18| true)
(= |goto_symex::&92;guard#19| false)
(= |goto_symex::&92;guard#20| false)
(= |goto_symex::&92;guard#21| false)
(= |goto_symex::&92;guard#22| false)
(= |goto_symex::&92;guard#23| true)
(= |goto_symex::&92;guard#24| false)
(= |goto_symex::&92;guard#25| false)
(= |memory_model::choice_rf_1_14_0_8_T_0| false)
(= |memory_model::choice_rf_0_17_0_6_T_1| false)
(= |memory_model::choice_rf_0_17_0_14_T_2| true)
(= |memory_model::choice_rf_0_21_0_11_F_3| false)
(= |memory_model::choice_rf_0_21_0_12_F_4| false)
(= |memory_model::choice_rf_0_21_0_13_F_5| true)
(= |memory_model::choice_rf_0_21_1_6_F_6| false)
(= |memory_model::choice_rf_0_21_1_13_F_7| false)
(= |memory_model::choice_rf_0_21_2_5_F_8| false)
(= |memory_model::choice_rf_0_21_2_8_F_9| false)
(= |memory_model::choice_rf_0_21_2_14_F_10| false)
(= |memory_model::choice_rf_0_21_2_17_F_11| false)
(= |memory_model::choice_rf_0_22_0_11_F_12| false)
(= |memory_model::choice_rf_0_22_0_12_F_13| false)
(= |memory_model::choice_rf_0_22_0_13_F_14| true)
(= |memory_model::choice_rf_0_22_1_6_F_15| false)
(= |memory_model::choice_rf_0_22_1_13_F_16| false)
(= |memory_model::choice_rf_0_22_2_5_F_17| false)
(= |memory_model::choice_rf_0_22_2_8_F_18| false)
(= |memory_model::choice_rf_0_22_2_14_F_19| false)
(= |memory_model::choice_rf_0_22_2_17_F_20| false)
(= |memory_model::choice_rf_0_23_0_11_F_21| false)
(= |memory_model::choice_rf_0_23_0_12_F_22| false)
(= |memory_model::choice_rf_0_23_0_13_F_23| true)
(= |memory_model::choice_rf_0_23_1_6_F_24| false)
(= |memory_model::choice_rf_0_23_1_13_F_25| false)
(= |memory_model::choice_rf_0_23_2_5_F_26| false)
(= |memory_model::choice_rf_0_23_2_8_F_27| false)
(= |memory_model::choice_rf_0_23_2_14_F_28| false)
(= |memory_model::choice_rf_0_23_2_17_F_29| false)
(= |memory_model::choice_rf_0_24_0_11_F_30| false)
(= |memory_model::choice_rf_0_24_0_12_F_31| false)
(= |memory_model::choice_rf_0_24_0_13_F_32| true)
(= |memory_model::choice_rf_0_24_1_6_F_33| false)
(= |memory_model::choice_rf_0_24_1_13_F_34| false)
(= |memory_model::choice_rf_0_24_2_5_F_35| false)
(= |memory_model::choice_rf_0_24_2_8_F_36| false)
(= |memory_model::choice_rf_0_24_2_14_F_37| false)
(= |memory_model::choice_rf_0_24_2_17_F_38| false)
(= |memory_model::choice_rf_0_25_0_11_F_39| false)
(= |memory_model::choice_rf_0_25_0_12_F_40| false)
(= |memory_model::choice_rf_0_25_0_13_F_41| true)
(= |memory_model::choice_rf_0_25_1_6_F_42| false)
(= |memory_model::choice_rf_0_25_1_13_F_43| false)
(= |memory_model::choice_rf_0_25_2_5_F_44| false)
(= |memory_model::choice_rf_0_25_2_8_F_45| false)
(= |memory_model::choice_rf_0_25_2_14_F_46| false)
(= |memory_model::choice_rf_0_25_2_17_F_47| false)
(= |memory_model::choice_rf_0_27_0_11_F_48| false)
(= |memory_model::choice_rf_0_27_0_12_F_49| false)
(= |memory_model::choice_rf_0_27_0_13_F_50| false)
(= |memory_model::choice_rf_0_27_0_26_F_51| true)
(= |memory_model::choice_rf_0_27_1_6_F_52| false)
(= |memory_model::choice_rf_0_27_1_13_F_53| false)
(= |memory_model::choice_rf_0_27_2_5_F_54| false)
(= |memory_model::choice_rf_0_27_2_8_F_55| false)
(= |memory_model::choice_rf_0_27_2_14_F_56| false)
(= |memory_model::choice_rf_0_27_2_17_F_57| false)
(= |memory_model::choice_rf_0_28_0_11_F_58| false)
(= |memory_model::choice_rf_0_28_0_12_F_59| false)
(= |memory_model::choice_rf_0_28_0_13_F_60| false)
(= |memory_model::choice_rf_0_28_0_26_F_61| true)
(= |memory_model::choice_rf_0_28_1_6_F_62| false)
(= |memory_model::choice_rf_0_28_1_13_F_63| false)
(= |memory_model::choice_rf_0_28_2_5_F_64| false)
(= |memory_model::choice_rf_0_28_2_8_F_65| false)
(= |memory_model::choice_rf_0_28_2_14_F_66| false)
(= |memory_model::choice_rf_0_28_2_17_F_67| false)
(= |memory_model::choice_rf_0_30_0_11_F_68| false)
(= |memory_model::choice_rf_0_30_0_12_F_69| false)
(= |memory_model::choice_rf_0_30_0_13_F_70| false)
(= |memory_model::choice_rf_0_30_0_26_F_71| false)
(= |memory_model::choice_rf_0_30_0_29_F_72| true)
(= |memory_model::choice_rf_0_30_1_6_F_73| false)
(= |memory_model::choice_rf_0_30_1_13_F_74| false)
(= |memory_model::choice_rf_0_30_2_5_F_75| false)
(= |memory_model::choice_rf_0_30_2_8_F_76| false)
(= |memory_model::choice_rf_0_30_2_14_F_77| false)
(= |memory_model::choice_rf_0_30_2_17_F_78| false)
(= |memory_model::choice_rf_0_31_0_11_F_79| false)
(= |memory_model::choice_rf_0_31_0_12_F_80| false)
(= |memory_model::choice_rf_0_31_0_13_F_81| false)
(= |memory_model::choice_rf_0_31_0_26_F_82| false)
(= |memory_model::choice_rf_0_31_0_29_F_83| true)
(= |memory_model::choice_rf_0_31_1_6_F_84| false)
(= |memory_model::choice_rf_0_31_1_13_F_85| false)
(= |memory_model::choice_rf_0_31_2_5_F_86| false)
(= |memory_model::choice_rf_0_31_2_8_F_87| false)
(= |memory_model::choice_rf_0_31_2_14_F_88| false)
(= |memory_model::choice_rf_0_31_2_17_F_89| false)
(= |memory_model::choice_rf_0_32_0_11_F_90| false)
(= |memory_model::choice_rf_0_32_0_12_F_91| false)
(= |memory_model::choice_rf_0_32_0_13_F_92| false)
(= |memory_model::choice_rf_0_32_0_26_F_93| false)
(= |memory_model::choice_rf_0_32_0_29_F_94| true)
(= |memory_model::choice_rf_0_32_1_6_F_95| false)
(= |memory_model::choice_rf_0_32_1_13_F_96| false)
(= |memory_model::choice_rf_0_32_2_5_F_97| false)
(= |memory_model::choice_rf_0_32_2_8_F_98| false)
(= |memory_model::choice_rf_0_32_2_14_F_99| false)
(= |memory_model::choice_rf_0_32_2_17_F_100| false)
(= |memory_model::choice_rf_0_33_0_11_F_101| false)
(= |memory_model::choice_rf_0_33_0_12_F_102| false)
(= |memory_model::choice_rf_0_33_0_13_F_103| false)
(= |memory_model::choice_rf_0_33_0_26_F_104| false)
(= |memory_model::choice_rf_0_33_0_29_F_105| true)
(= |memory_model::choice_rf_0_33_1_6_F_106| false)
(= |memory_model::choice_rf_0_33_1_13_F_107| false)
(= |memory_model::choice_rf_0_33_2_5_F_108| false)
(= |memory_model::choice_rf_0_33_2_8_F_109| false)
(= |memory_model::choice_rf_0_33_2_14_F_110| false)
(= |memory_model::choice_rf_0_33_2_17_F_111| false)
(= |memory_model::choice_rf_0_34_0_11_F_112| false)
(= |memory_model::choice_rf_0_34_0_12_F_113| false)
(= |memory_model::choice_rf_0_34_0_13_F_114| false)
(= |memory_model::choice_rf_0_34_0_26_F_115| false)
(= |memory_model::choice_rf_0_34_0_29_F_116| true)
(= |memory_model::choice_rf_0_34_1_6_F_117| false)
(= |memory_model::choice_rf_0_34_1_13_F_118| false)
(= |memory_model::choice_rf_0_34_2_5_F_119| false)
(= |memory_model::choice_rf_0_34_2_8_F_120| false)
(= |memory_model::choice_rf_0_34_2_14_F_121| false)
(= |memory_model::choice_rf_0_34_2_17_F_122| false)
(= |memory_model::choice_rf_0_36_0_11_F_123| false)
(= |memory_model::choice_rf_0_36_0_12_F_124| false)
(= |memory_model::choice_rf_0_36_0_13_F_125| false)
(= |memory_model::choice_rf_0_36_0_26_F_126| false)
(= |memory_model::choice_rf_0_36_0_29_F_127| false)
(= |memory_model::choice_rf_0_36_0_35_F_128| true)
(= |memory_model::choice_rf_0_36_1_6_F_129| false)
(= |memory_model::choice_rf_0_36_1_13_F_130| false)
(= |memory_model::choice_rf_0_36_2_5_F_131| false)
(= |memory_model::choice_rf_0_36_2_8_F_132| false)
(= |memory_model::choice_rf_0_36_2_14_F_133| false)
(= |memory_model::choice_rf_0_36_2_17_F_134| false)
(= |memory_model::choice_rf_0_37_0_11_F_135| false)
(= |memory_model::choice_rf_0_37_0_12_F_136| false)
(= |memory_model::choice_rf_0_37_0_13_F_137| false)
(= |memory_model::choice_rf_0_37_0_26_F_138| false)
(= |memory_model::choice_rf_0_37_0_29_F_139| false)
(= |memory_model::choice_rf_0_37_0_35_F_140| true)
(= |memory_model::choice_rf_0_37_1_6_F_141| false)
(= |memory_model::choice_rf_0_37_1_13_F_142| false)
(= |memory_model::choice_rf_0_37_2_5_F_143| false)
(= |memory_model::choice_rf_0_37_2_8_F_144| false)
(= |memory_model::choice_rf_0_37_2_14_F_145| false)
(= |memory_model::choice_rf_0_37_2_17_F_146| false)
(= |memory_model::choice_rf_1_0_0_11_F_147| false)
(= |memory_model::choice_rf_1_0_0_12_F_148| false)
(= |memory_model::choice_rf_1_0_0_13_F_149| true)
(= |memory_model::choice_rf_1_0_0_26_F_150| false)
(= |memory_model::choice_rf_1_0_0_29_F_151| false)
(= |memory_model::choice_rf_1_0_0_35_F_152| false)
(= |memory_model::choice_rf_1_0_0_38_F_153| false)
(= |memory_model::choice_rf_1_0_2_5_F_154| false)
(= |memory_model::choice_rf_1_0_2_8_F_155| false)
(= |memory_model::choice_rf_1_0_2_14_F_156| false)
(= |memory_model::choice_rf_1_0_2_17_F_157| false)
(= |memory_model::choice_rf_1_1_0_11_F_158| false)
(= |memory_model::choice_rf_1_1_0_12_F_159| false)
(= |memory_model::choice_rf_1_1_0_13_F_160| false)
(= |memory_model::choice_rf_1_1_0_26_F_161| false)
(= |memory_model::choice_rf_1_1_0_29_F_162| true)
(= |memory_model::choice_rf_1_1_0_35_F_163| false)
(= |memory_model::choice_rf_1_1_0_38_F_164| false)
(= |memory_model::choice_rf_1_1_2_5_F_165| false)
(= |memory_model::choice_rf_1_1_2_8_F_166| false)
(= |memory_model::choice_rf_1_1_2_14_F_167| false)
(= |memory_model::choice_rf_1_1_2_17_F_168| false)
(= |memory_model::choice_rf_1_2_0_11_F_169| false)
(= |memory_model::choice_rf_1_2_0_12_F_170| false)
(= |memory_model::choice_rf_1_2_0_13_F_171| false)
(= |memory_model::choice_rf_1_2_0_26_F_172| false)
(= |memory_model::choice_rf_1_2_0_29_F_173| true)
(= |memory_model::choice_rf_1_2_0_35_F_174| false)
(= |memory_model::choice_rf_1_2_0_38_F_175| false)
(= |memory_model::choice_rf_1_2_2_5_F_176| false)
(= |memory_model::choice_rf_1_2_2_8_F_177| false)
(= |memory_model::choice_rf_1_2_2_14_F_178| false)
(= |memory_model::choice_rf_1_2_2_17_F_179| false)
(= |memory_model::choice_rf_1_3_0_11_F_180| false)
(= |memory_model::choice_rf_1_3_0_12_F_181| false)
(= |memory_model::choice_rf_1_3_0_13_F_182| false)
(= |memory_model::choice_rf_1_3_0_26_F_183| false)
(= |memory_model::choice_rf_1_3_0_29_F_184| true)
(= |memory_model::choice_rf_1_3_0_35_F_185| false)
(= |memory_model::choice_rf_1_3_0_38_F_186| false)
(= |memory_model::choice_rf_1_3_2_5_F_187| false)
(= |memory_model::choice_rf_1_3_2_8_F_188| false)
(= |memory_model::choice_rf_1_3_2_14_F_189| false)
(= |memory_model::choice_rf_1_3_2_17_F_190| false)
(= |memory_model::choice_rf_1_4_0_11_F_191| false)
(= |memory_model::choice_rf_1_4_0_12_F_192| false)
(= |memory_model::choice_rf_1_4_0_13_F_193| false)
(= |memory_model::choice_rf_1_4_0_26_F_194| false)
(= |memory_model::choice_rf_1_4_0_29_F_195| false)
(= |memory_model::choice_rf_1_4_0_35_F_196| true)
(= |memory_model::choice_rf_1_4_0_38_F_197| false)
(= |memory_model::choice_rf_1_4_2_5_F_198| false)
(= |memory_model::choice_rf_1_4_2_8_F_199| false)
(= |memory_model::choice_rf_1_4_2_14_F_200| false)
(= |memory_model::choice_rf_1_4_2_17_F_201| false)
(= |memory_model::choice_rf_1_5_0_11_F_202| false)
(= |memory_model::choice_rf_1_5_0_12_F_203| false)
(= |memory_model::choice_rf_1_5_0_13_F_204| false)
(= |memory_model::choice_rf_1_5_0_26_F_205| false)
(= |memory_model::choice_rf_1_5_0_29_F_206| false)
(= |memory_model::choice_rf_1_5_0_35_F_207| false)
(= |memory_model::choice_rf_1_5_0_38_F_208| true)
(= |memory_model::choice_rf_1_5_2_5_F_209| false)
(= |memory_model::choice_rf_1_5_2_8_F_210| false)
(= |memory_model::choice_rf_1_5_2_14_F_211| false)
(= |memory_model::choice_rf_1_5_2_17_F_212| false)
(= |memory_model::choice_rf_1_7_0_11_F_213| false)
(= |memory_model::choice_rf_1_7_0_12_F_214| false)
(= |memory_model::choice_rf_1_7_0_13_F_215| false)
(= |memory_model::choice_rf_1_7_0_26_F_216| false)
(= |memory_model::choice_rf_1_7_0_29_F_217| false)
(= |memory_model::choice_rf_1_7_0_35_F_218| false)
(= |memory_model::choice_rf_1_7_0_38_F_219| false)
(= |memory_model::choice_rf_1_7_1_6_F_220| true)
(= |memory_model::choice_rf_1_7_2_5_F_221| false)
(= |memory_model::choice_rf_1_7_2_8_F_222| false)
(= |memory_model::choice_rf_1_7_2_14_F_223| false)
(= |memory_model::choice_rf_1_7_2_17_F_224| false)
(= |memory_model::choice_rf_1_8_0_11_F_225| false)
(= |memory_model::choice_rf_1_8_0_12_F_226| false)
(= |memory_model::choice_rf_1_8_0_13_F_227| false)
(= |memory_model::choice_rf_1_8_0_26_F_228| false)
(= |memory_model::choice_rf_1_8_0_29_F_229| false)
(= |memory_model::choice_rf_1_8_0_35_F_230| false)
(= |memory_model::choice_rf_1_8_0_38_F_231| false)
(= |memory_model::choice_rf_1_8_1_6_F_232| false)
(= |memory_model::choice_rf_1_8_2_5_F_233| false)
(= |memory_model::choice_rf_1_8_2_8_F_234| false)
(= |memory_model::choice_rf_1_8_2_14_F_235| false)
(= |memory_model::choice_rf_1_8_2_17_F_236| false)
(= |memory_model::choice_rf_1_9_0_11_F_237| false)
(= |memory_model::choice_rf_1_9_0_12_F_238| false)
(= |memory_model::choice_rf_1_9_0_13_F_239| false)
(= |memory_model::choice_rf_1_9_0_26_F_240| false)
(= |memory_model::choice_rf_1_9_0_29_F_241| false)
(= |memory_model::choice_rf_1_9_0_35_F_242| false)
(= |memory_model::choice_rf_1_9_0_38_F_243| false)
(= |memory_model::choice_rf_1_9_1_6_F_244| false)
(= |memory_model::choice_rf_1_9_2_5_F_245| false)
(= |memory_model::choice_rf_1_9_2_8_F_246| false)
(= |memory_model::choice_rf_1_9_2_14_F_247| false)
(= |memory_model::choice_rf_1_9_2_17_F_248| false)
(= |memory_model::choice_rf_1_10_0_11_F_249| false)
(= |memory_model::choice_rf_1_10_0_12_F_250| false)
(= |memory_model::choice_rf_1_10_0_13_F_251| false)
(= |memory_model::choice_rf_1_10_0_26_F_252| false)
(= |memory_model::choice_rf_1_10_0_29_F_253| false)
(= |memory_model::choice_rf_1_10_0_35_F_254| false)
(= |memory_model::choice_rf_1_10_0_38_F_255| false)
(= |memory_model::choice_rf_1_10_1_6_F_256| true)
(= |memory_model::choice_rf_1_10_2_5_F_257| false)
(= |memory_model::choice_rf_1_10_2_8_F_258| false)
(= |memory_model::choice_rf_1_10_2_14_F_259| false)
(= |memory_model::choice_rf_1_10_2_17_F_260| false)
(= |memory_model::choice_rf_1_11_0_11_F_261| false)
(= |memory_model::choice_rf_1_11_0_12_F_262| false)
(= |memory_model::choice_rf_1_11_0_13_F_263| false)
(= |memory_model::choice_rf_1_11_0_26_F_264| false)
(= |memory_model::choice_rf_1_11_0_29_F_265| false)
(= |memory_model::choice_rf_1_11_0_35_F_266| false)
(= |memory_model::choice_rf_1_11_0_38_F_267| false)
(= |memory_model::choice_rf_1_11_1_6_F_268| false)
(= |memory_model::choice_rf_1_11_2_5_F_269| false)
(= |memory_model::choice_rf_1_11_2_8_F_270| false)
(= |memory_model::choice_rf_1_11_2_14_F_271| false)
(= |memory_model::choice_rf_1_11_2_17_F_272| false)
(= |memory_model::choice_rf_1_12_0_11_F_273| false)
(= |memory_model::choice_rf_1_12_0_12_F_274| false)
(= |memory_model::choice_rf_1_12_0_13_F_275| false)
(= |memory_model::choice_rf_1_12_0_26_F_276| false)
(= |memory_model::choice_rf_1_12_0_29_F_277| false)
(= |memory_model::choice_rf_1_12_0_35_F_278| false)
(= |memory_model::choice_rf_1_12_0_38_F_279| false)
(= |memory_model::choice_rf_1_12_1_6_F_280| false)
(= |memory_model::choice_rf_1_12_2_5_F_281| false)
(= |memory_model::choice_rf_1_12_2_8_F_282| false)
(= |memory_model::choice_rf_1_12_2_14_F_283| false)
(= |memory_model::choice_rf_1_12_2_17_F_284| false)
(= |memory_model::choice_rf_2_0_0_11_F_285| false)
(= |memory_model::choice_rf_2_0_0_12_F_286| false)
(= |memory_model::choice_rf_2_0_0_13_F_287| true)
(= |memory_model::choice_rf_2_0_0_26_F_288| false)
(= |memory_model::choice_rf_2_0_0_29_F_289| false)
(= |memory_model::choice_rf_2_0_0_35_F_290| false)
(= |memory_model::choice_rf_2_0_0_38_F_291| false)
(= |memory_model::choice_rf_2_0_1_6_F_292| false)
(= |memory_model::choice_rf_2_0_1_13_F_293| false)
(= |memory_model::choice_rf_2_1_0_11_F_294| false)
(= |memory_model::choice_rf_2_1_0_12_F_295| false)
(= |memory_model::choice_rf_2_1_0_13_F_296| true)
(= |memory_model::choice_rf_2_1_0_26_F_297| false)
(= |memory_model::choice_rf_2_1_0_29_F_298| false)
(= |memory_model::choice_rf_2_1_0_35_F_299| false)
(= |memory_model::choice_rf_2_1_0_38_F_300| false)
(= |memory_model::choice_rf_2_1_1_6_F_301| false)
(= |memory_model::choice_rf_2_1_1_13_F_302| false)
(= |memory_model::choice_rf_2_2_0_11_F_303| false)
(= |memory_model::choice_rf_2_2_0_12_F_304| false)
(= |memory_model::choice_rf_2_2_0_13_F_305| true)
(= |memory_model::choice_rf_2_2_0_26_F_306| false)
(= |memory_model::choice_rf_2_2_0_29_F_307| false)
(= |memory_model::choice_rf_2_2_0_35_F_308| false)
(= |memory_model::choice_rf_2_2_0_38_F_309| false)
(= |memory_model::choice_rf_2_2_1_6_F_310| false)
(= |memory_model::choice_rf_2_2_1_13_F_311| false)
(= |memory_model::choice_rf_2_3_0_11_F_312| false)
(= |memory_model::choice_rf_2_3_0_12_F_313| false)
(= |memory_model::choice_rf_2_3_0_13_F_314| false)
(= |memory_model::choice_rf_2_3_0_26_F_315| false)
(= |memory_model::choice_rf_2_3_0_29_F_316| false)
(= |memory_model::choice_rf_2_3_0_35_F_317| true)
(= |memory_model::choice_rf_2_3_0_38_F_318| false)
(= |memory_model::choice_rf_2_3_1_6_F_319| false)
(= |memory_model::choice_rf_2_3_1_13_F_320| false)
(= |memory_model::choice_rf_2_4_0_11_F_321| false)
(= |memory_model::choice_rf_2_4_0_12_F_322| false)
(= |memory_model::choice_rf_2_4_0_13_F_323| false)
(= |memory_model::choice_rf_2_4_0_26_F_324| false)
(= |memory_model::choice_rf_2_4_0_29_F_325| false)
(= |memory_model::choice_rf_2_4_0_35_F_326| false)
(= |memory_model::choice_rf_2_4_0_38_F_327| true)
(= |memory_model::choice_rf_2_4_1_6_F_328| false)
(= |memory_model::choice_rf_2_4_1_13_F_329| false)
(= |memory_model::choice_rf_2_6_0_11_F_330| false)
(= |memory_model::choice_rf_2_6_0_12_F_331| false)
(= |memory_model::choice_rf_2_6_0_13_F_332| false)
(= |memory_model::choice_rf_2_6_0_26_F_333| false)
(= |memory_model::choice_rf_2_6_0_29_F_334| false)
(= |memory_model::choice_rf_2_6_0_35_F_335| false)
(= |memory_model::choice_rf_2_6_0_38_F_336| false)
(= |memory_model::choice_rf_2_6_1_6_F_337| false)
(= |memory_model::choice_rf_2_6_1_13_F_338| false)
(= |memory_model::choice_rf_2_6_2_5_F_339| true)
(= |memory_model::choice_rf_2_7_0_11_F_340| false)
(= |memory_model::choice_rf_2_7_0_12_F_341| false)
(= |memory_model::choice_rf_2_7_0_13_F_342| false)
(= |memory_model::choice_rf_2_7_0_26_F_343| false)
(= |memory_model::choice_rf_2_7_0_29_F_344| false)
(= |memory_model::choice_rf_2_7_0_35_F_345| false)
(= |memory_model::choice_rf_2_7_0_38_F_346| false)
(= |memory_model::choice_rf_2_7_1_6_F_347| false)
(= |memory_model::choice_rf_2_7_1_13_F_348| false)
(= |memory_model::choice_rf_2_7_2_5_F_349| true)
(= |memory_model::choice_rf_2_9_0_11_F_350| false)
(= |memory_model::choice_rf_2_9_0_12_F_351| false)
(= |memory_model::choice_rf_2_9_0_13_F_352| false)
(= |memory_model::choice_rf_2_9_0_26_F_353| false)
(= |memory_model::choice_rf_2_9_0_29_F_354| false)
(= |memory_model::choice_rf_2_9_0_35_F_355| false)
(= |memory_model::choice_rf_2_9_0_38_F_356| false)
(= |memory_model::choice_rf_2_9_1_6_F_357| false)
(= |memory_model::choice_rf_2_9_1_13_F_358| false)
(= |memory_model::choice_rf_2_9_2_5_F_359| false)
(= |memory_model::choice_rf_2_9_2_8_F_360| true)
(= |memory_model::choice_rf_2_10_0_11_F_361| false)
(= |memory_model::choice_rf_2_10_0_12_F_362| false)
(= |memory_model::choice_rf_2_10_0_13_F_363| false)
(= |memory_model::choice_rf_2_10_0_26_F_364| false)
(= |memory_model::choice_rf_2_10_0_29_F_365| false)
(= |memory_model::choice_rf_2_10_0_35_F_366| false)
(= |memory_model::choice_rf_2_10_0_38_F_367| false)
(= |memory_model::choice_rf_2_10_1_6_F_368| false)
(= |memory_model::choice_rf_2_10_1_13_F_369| false)
(= |memory_model::choice_rf_2_10_2_5_F_370| false)
(= |memory_model::choice_rf_2_10_2_8_F_371| true)
(= |memory_model::choice_rf_2_11_0_11_F_372| false)
(= |memory_model::choice_rf_2_11_0_12_F_373| false)
(= |memory_model::choice_rf_2_11_0_13_F_374| false)
(= |memory_model::choice_rf_2_11_0_26_F_375| false)
(= |memory_model::choice_rf_2_11_0_29_F_376| false)
(= |memory_model::choice_rf_2_11_0_35_F_377| false)
(= |memory_model::choice_rf_2_11_0_38_F_378| false)
(= |memory_model::choice_rf_2_11_1_6_F_379| true)
(= |memory_model::choice_rf_2_11_1_13_F_380| false)
(= |memory_model::choice_rf_2_11_2_5_F_381| false)
(= |memory_model::choice_rf_2_11_2_8_F_382| false)
(= |memory_model::choice_rf_2_12_0_11_F_383| false)
(= |memory_model::choice_rf_2_12_0_12_F_384| false)
(= |memory_model::choice_rf_2_12_0_13_F_385| false)
(= |memory_model::choice_rf_2_12_0_26_F_386| false)
(= |memory_model::choice_rf_2_12_0_29_F_387| false)
(= |memory_model::choice_rf_2_12_0_35_F_388| false)
(= |memory_model::choice_rf_2_12_0_38_F_389| false)
(= |memory_model::choice_rf_2_12_1_6_F_390| true)
(= |memory_model::choice_rf_2_12_1_13_F_391| false)
(= |memory_model::choice_rf_2_12_2_5_F_392| false)
(= |memory_model::choice_rf_2_12_2_8_F_393| false)
(= |memory_model::choice_rf_2_13_0_11_F_394| false)
(= |memory_model::choice_rf_2_13_0_12_F_395| false)
(= |memory_model::choice_rf_2_13_0_13_F_396| false)
(= |memory_model::choice_rf_2_13_0_26_F_397| false)
(= |memory_model::choice_rf_2_13_0_29_F_398| false)
(= |memory_model::choice_rf_2_13_0_35_F_399| false)
(= |memory_model::choice_rf_2_13_0_38_F_400| false)
(= |memory_model::choice_rf_2_13_1_6_F_401| true)
(= |memory_model::choice_rf_2_13_1_13_F_402| false)
(= |memory_model::choice_rf_2_13_2_5_F_403| false)
(= |memory_model::choice_rf_2_13_2_8_F_404| false)
(= |memory_model::choice_rf_2_15_0_11_F_405| false)
(= |memory_model::choice_rf_2_15_0_12_F_406| false)
(= |memory_model::choice_rf_2_15_0_13_F_407| false)
(= |memory_model::choice_rf_2_15_0_26_F_408| false)
(= |memory_model::choice_rf_2_15_0_29_F_409| false)
(= |memory_model::choice_rf_2_15_0_35_F_410| false)
(= |memory_model::choice_rf_2_15_0_38_F_411| false)
(= |memory_model::choice_rf_2_15_1_6_F_412| false)
(= |memory_model::choice_rf_2_15_1_13_F_413| false)
(= |memory_model::choice_rf_2_15_2_5_F_414| false)
(= |memory_model::choice_rf_2_15_2_8_F_415| false)
(= |memory_model::choice_rf_2_15_2_14_F_416| true)
(= |memory_model::choice_rf_2_16_0_11_F_417| false)
(= |memory_model::choice_rf_2_16_0_12_F_418| false)
(= |memory_model::choice_rf_2_16_0_13_F_419| false)
(= |memory_model::choice_rf_2_16_0_26_F_420| false)
(= |memory_model::choice_rf_2_16_0_29_F_421| false)
(= |memory_model::choice_rf_2_16_0_35_F_422| false)
(= |memory_model::choice_rf_2_16_0_38_F_423| false)
(= |memory_model::choice_rf_2_16_1_6_F_424| false)
(= |memory_model::choice_rf_2_16_1_13_F_425| false)
(= |memory_model::choice_rf_2_16_2_5_F_426| false)
(= |memory_model::choice_rf_2_16_2_8_F_427| false)
(= |memory_model::choice_rf_2_16_2_14_F_428| true)
(= |memory_model::choice_ws-ext_0_8_1_15_T_429| true)
(= |memory_model::choice_ws-ext_0_11_1_6_F_430| true)
(= |memory_model::choice_ws-ext_0_11_1_13_F_431| true)
(= |memory_model::choice_ws-ext_0_11_2_5_F_432| true)
(= |memory_model::choice_ws-ext_0_11_2_8_F_433| true)
(= |memory_model::choice_ws-ext_0_11_2_14_F_434| true)
(= |memory_model::choice_ws-ext_0_11_2_17_F_435| true)
(= |memory_model::choice_ws-ext_0_12_1_6_F_436| true)
(= |memory_model::choice_ws-ext_0_12_1_13_F_437| true)
(= |memory_model::choice_ws-ext_0_12_2_5_F_438| true)
(= |memory_model::choice_ws-ext_0_12_2_8_F_439| true)
(= |memory_model::choice_ws-ext_0_12_2_14_F_440| true)
(= |memory_model::choice_ws-ext_0_12_2_17_F_441| true)
(= |memory_model::choice_ws-ext_0_13_1_6_F_442| true)
(= |memory_model::choice_ws-ext_0_13_1_13_F_443| true)
(= |memory_model::choice_ws-ext_0_13_2_5_F_444| true)
(= |memory_model::choice_ws-ext_0_13_2_8_F_445| true)
(= |memory_model::choice_ws-ext_0_13_2_14_F_446| true)
(= |memory_model::choice_ws-ext_0_13_2_17_F_447| true)
(= |memory_model::choice_ws-ext_0_26_1_6_F_448| true)
(= |memory_model::choice_ws-ext_0_26_1_13_F_449| true)
(= |memory_model::choice_ws-ext_0_26_2_5_F_450| true)
(= |memory_model::choice_ws-ext_0_26_2_8_F_451| true)
(= |memory_model::choice_ws-ext_0_26_2_14_F_452| true)
(= |memory_model::choice_ws-ext_0_26_2_17_F_453| true)
(= |memory_model::choice_ws-ext_0_29_1_6_F_454| true)
(= |memory_model::choice_ws-ext_0_29_1_13_F_455| true)
(= |memory_model::choice_ws-ext_0_29_2_5_F_456| true)
(= |memory_model::choice_ws-ext_0_29_2_8_F_457| true)
(= |memory_model::choice_ws-ext_0_29_2_14_F_458| true)
(= |memory_model::choice_ws-ext_0_29_2_17_F_459| true)
(= |memory_model::choice_ws-ext_0_35_1_6_F_460| true)
(= |memory_model::choice_ws-ext_0_35_1_13_F_461| true)
(= |memory_model::choice_ws-ext_0_35_2_5_F_462| true)
(= |memory_model::choice_ws-ext_0_35_2_8_F_463| true)
(= |memory_model::choice_ws-ext_0_35_2_14_F_464| true)
(= |memory_model::choice_ws-ext_0_35_2_17_F_465| true)
(= |memory_model::choice_ws-ext_0_38_1_6_F_466| true)
(= |memory_model::choice_ws-ext_0_38_1_13_F_467| true)
(= |memory_model::choice_ws-ext_0_38_2_5_F_468| true)
(= |memory_model::choice_ws-ext_0_38_2_8_F_469| true)
(= |memory_model::choice_ws-ext_0_38_2_14_F_470| true)
(= |memory_model::choice_ws-ext_0_38_2_17_F_471| true)
(= |memory_model::choice_ws-ext_1_6_2_5_F_472| false)
(= |memory_model::choice_ws-ext_1_6_2_8_F_473| false)
(= |memory_model::choice_ws-ext_1_6_2_14_F_474| true)
(= |memory_model::choice_ws-ext_1_6_2_17_F_475| true)
(= |memory_model::choice_ws-ext_1_13_2_5_F_476| false)
(= |memory_model::choice_ws-ext_1_13_2_8_F_477| false)
(= |memory_model::choice_ws-ext_1_13_2_14_F_478| false)
(= |memory_model::choice_ws-ext_1_13_2_17_F_479| true)
(=
 |main::1::r!0@1#1|
 #b100000010000000000000000000000001000000000000000000000000000000001011110010111111110111101010100000000000000000000000000110111100000000000000000000000000000011010000000000000000000000000000000)
(= |__CPROVER_next_thread_id#3| #b00000000000000000000000000000001)
(=
 |main::1::r!0@1#4|
 #b000000000000000000000000000000001000000000000000000000000000000001011110010111111110111101010100000000000000000000000000110111100000000000000000000000000000011000000000000000000000000000000000)
(=
 |main::1::r!0@1#5|
 #b000000000000000000000000000000001000000000000000000000000000000001011110010111111110111101010100000000000000000000000000110111100000000000000000000000000000011000000000000000000000000000000000)
(=
 |main::1::r!0@1#6|
 #b000000000000000000000000000000001000000000000000000000000000000001011110010111111110111101010100000000000000000000000000110111100000000000000000000000000000011000000000000000000000000000000000)
(=
 |main::1::r!0@1#7|
 #b000000000000000000000000000000001000000000000000000000000000000001011110010111111110111101010100000000000000000000000000110111100000000000000000000000000000011000000000000000000000000000000000)
(=
 |main::1::r!0@1#8|
 #b000000000000000000000000000000001000000000000000000000000000000001011110010111111110111101010100000000000000000000000000110111100000000000000000000000000000011000000000000000000000000000000000)
(=
 |main::1::r!0@1#10|
 #b000000000000000000000000000000001000000000000000000000000000000001011110010111111110111101010100000000000000000000000000110111100000000000000000000000000000011100000000000000000000000000000000)
(=
 |main::1::r!0@1#11|
 #b000000000000000000000000000000001000000000000000000000000000000001011110010111111110111101010100000000000000000000000000110111100000000000000000000000000000011100000000000000000000000000000000)
(=
 |main::1::r!0@1#13|
 #b000000000000000000000000000000011000000000000000000000000000000001011110010111111110111101010100000000000000000000000000110111100000000000000000000000000000011100000000000000000000000000000000)
(=
 |main::1::r!0@1#14|
 #b000000000000000000000000000000011000000000000000000000000000000001011110010111111110111101010100000000000000000000000000110111100000000000000000000000000000011100000000000000000000000000000000)
(=
 |main::1::r!0@1#15|
 #b000000000000000000000000000000011000000000000000000000000000000001011110010111111110111101010100000000000000000000000000110111100000000000000000000000000000011100000000000000000000000000000000)
(=
 |main::1::r!0@1#16|
 #b000000000000000000000000000000011000000000000000000000000000000001011110010111111110111101010100000000000000000000000000110111100000000000000000000000000000011100000000000000000000000000000000)
(=
 |main::1::r!0@1#17|
 #b000000000000000000000000000000011000000000000000000000000000000001011110010111111110111101010100000000000000000000000000110111100000000000000000000000000000011100000000000000000000000000000000)
(=
 |main::1::r!0@1#19|
 #b000000000000000000000000000000010000000000000000000000000000000001011110010111111110111101010100000000000000000000000000110111100000000000000000000000000000011100000000000000000000000000000000)
(=
 |main::1::r!0@1#20|
 #b000000000000000000000000000000010000000000000000000000000000000001011110010111111110111101010100000000000000000000000000110111100000000000000000000000000000011100000000000000000000000000000000)
(=
 |main::1::r!0@1#23|
 #b000000000000000000000000000000001000000000000000000000000000000001011110010111111110111101010100000000000000000000000000110111100000000000000000000000000000011000000000000000000000000000000000)
(=
 |main::1::r!0@1#24|
 #b000000000000000000000000000000011000000000000000000000000000000001011110010111111110111101010100000000000000000000000000110111100000000000000000000000000000011100000000000000000000000000000000)
(=
 |main::1::r!0@1#25|
 #b000000000000000000000000000000011000000000000000000000000000000001011110010111111110111101010100000000000000000000000000110111100000000000000000000000000000011100000000000000000000000000000000)
(=
 |main::1::r!0@1#26|
 #b000000000000000000000000000000011000000000000000000000000000000001011110010111111110111101010100000000000000000000000000110111100000000000000000000000000000011100000000000000000000000000000000)
(=
 |main::1::r!0@1#27|
 #b000000000000000000000000000000010000000000000000000000000000000001011110010111111110111101010100000000000000000000000000110111100000000000000000000000000000011100000000000000000000000000000000)
(=
 |main::1::r!0@1#28|
 #b000000000000000000000000000000100000000000000000000000000000000001011110010111111110111101010100000000000000000000000000110111100000000000000000000000000000011100000000000000000000000000000000)
(=
 |main::1::r!0@1#30|
 #b000000000000000000000000000000010000000000000000000000000000000001011110010111111110111101010100000000000000000000000000110111100000000000000000000000000000011100000000000000000000000000000001)
(=
 |main::1::r!0@1#31|
 #b000000000000000000000000000000001000000000000000000000000000000001011110010111111110111101010100000000000000000000000000110111100000000000000000000000000000011100000000000000000000000000000000)
(=
 |main::1::r!0@1#32|
 #b000000000000000000000000000000000000000000000000000000000000000000000000000000000000000000000000000000000000000000000000000000010000000000000000000000000000000100000000000000000000000000000000)
(=
 |main::1::r!0@1#33|
 #b000000000000000000000000000000010000000000000000000000000000000001011110010111111110111101010100000000000000000000000000110111100000000000000000000000000000011100000000000000000000000000000001)
(=
 |main::1::r!0@1#34|
 #b100000000000000000000000000000010000000000000000000000000000000001011110010111111110111101010100000000000000000000000000110111100000000000000000000000000000011100000000000000000000000000000001)
(=
 |main::1::r!0@1#35|
 #b000000000000000000000000000000100000000000000000000000000000000010011110010111111110000110110011000000000000000000000000000000010000000000000000000000000000010100000000000000000000000000000000)
(=
 |main::1::r!0@1#37|
 #b000000000000000000000000000000001000000000000000000000000000000001011110010111111110111101010100000000000000000000000000110111100000000000000000000000000000011000000000000000000000000000000000)
(=
 |main::1::r!0@1#38|
 #b000000000000000000000000000000001000000000000000000000000000000001011110010111111110111101010100000000000000000000000000110111100000000000000000000000000000011000000000000000000000000000000000)
(=
 |main::1::r!0@1#39|
 #b000000000000000000000000000000001000000000000000000000000000000001011110010111111110111101010100000000000000000000000000110111100000000000000000000000000000011000000000000000000000000000000000)
(=
 |main::1::r!0@1#40|
 #b000000000000000000000000000000010000000000000000000000000000000001011110010111111110111101010100000000000000000000000000110111100000000000000000000000000000011100000000000000000000000000000000)
(=
 |main::1::r!0@1#41|
 #b000000000000000000000000000000100000000000000000000000000000000001011110010111111110111101010100000000000000000000000000110111100000000000000000000000000000011100000000000000000000000000000000)
(=
 |main::1::r!0@1#43|
 #b000000000000000000000000000000000000000000000000000000000000000000000000000000000000000000000000000000000000000000000000110111100000000000000000000000000000011100000000000000000000000000000000)
(=
 |main::1::r!0@1#44|
 #b000000000000000000000000000000000000000000000000000000000000000000000000000000000000000000000000000000000000000000000000110111100000000000000000000000000000011100000000000000000000000000000000)
(=
 |main::1::r!0@1#46|
 #b000000000000000000000000000000010000000000000000000000000000000000000000000000000000000000000000000000000000000000000000110111100000000000000000000000000000011100000000000000000000000000000000)
(=
 |main::1::r!0@1#47|
 #b000000000000000000000000000000010000000000000000000000000000000000000000000000000000000000000000000000000000000000000000110111100000000000000000000000000000011100000000000000000000000000000000)
(=
 |main::1::r!0@1#48|
 #b000000000000000000000000000000010000000000000000000000000000000001011110010111111110111101010100000000000000000000000000110111100000000000000000000000000000011100000000000000000000000000000001)
(=
 |main::1::r!0@1#49|
 #b000000000000000000000000000000010000000000000000000000000000000001011110010111111110111101010100000000000000000000000000110111100000000000000000000000000000011100000000000000000000000000000001)
(=
 |main::1::r!0@1#50|
 #b000000000000000000000000000000010000000000000000000000000000000001011110010111111110111101010100000000000000000000000000110111100000000000000000000000000000011100000000000000000000000000000001)
(=
 |main::1::r!0@1#52|
 #b000000000000000000000000000000010000000000000000000000000000000001011110010111111110111101010100000000000000000000000000110111100000000000000000000000000000011100000000000000000000000000000001)
(=
 |main::1::r!0@1#53|
 #b000000000000000000000000000000010000000000000000000000000000000001011110010111111110111101010100000000000000000000000000110111100000000000000000000000000000011100000000000000000000000000000001)
(= |__CPROVER_threads_exited#1$wclk$8| #b0001000)
(= |__CPROVER_threads_exited#2$rclk$8| #b1111110)
(= |main::1::r!0@1#29$wclk$8| #b1110101)
(= |main::1::r!0@1#4$rclk$8| #b0010111)
(= |main::1::r!0@1#36$wclk$8| #b1111101)
(= |main::1::r!0@1#42$wclk$8| #b0111000)
(= |main::1::r!0@1#45$wclk$8| #b0111011)
(= |main::1::r!0@1#51$wclk$8| #b1111100)
(= |main::1::r!0@1#54$wclk$8| #b1111111)
(= |main::1::r!0@1#5$rclk$8| #b0011000)
(= |main::1::r!0@1#6$rclk$8| #b0011001)
(= |main::1::r!0@1#7$rclk$8| #b0011010)
(= |main::1::r!0@1#8$rclk$8| #b0011011)
(= |main::1::r!0@1#10$rclk$8| #b0011101)
(= |main::1::r!0@1#11$rclk$8| #b0011110)
(= |main::1::r!0@1#13$rclk$8| #b0100110)
(= |main::1::r!0@1#14$rclk$8| #b0101110)
(= |main::1::r!0@1#15$rclk$8| #b0101111)
(= |main::1::r!0@1#16$rclk$8| #b0110000)
(= |main::1::r!0@1#17$rclk$8| #b0110001)
(= |main::1::r!0@1#19$rclk$8| #b0110100)
(= |main::1::r!0@1#20$rclk$8| #b0110101)
(= |main::1::r!0@1#1$wclk$8| #b0001011)
(= |main::1::r!0@1#23$rclk$8| #b0010100)
(= |main::1::r!0@1#2$wclk$8| #b0001100)
(= |main::1::r!0@1#3$wclk$8| #b0001101)
(= |main::1::r!0@1#9$wclk$8| #b0011100)
(= |main::1::r!0@1#12$wclk$8| #b0011111)
(= |main::1::r!0@1#18$wclk$8| #b0110010)
(= |main::1::r!0@1#21$wclk$8| #b0110110)
(= |main::1::r!0@1#24$rclk$8| #b0100000)
(= |main::1::r!0@1#25$rclk$8| #b0110000)
(= |main::1::r!0@1#26$rclk$8| #b0110001)
(= |main::1::r!0@1#27$rclk$8| #b0110011)
(= |main::1::r!0@1#28$rclk$8| #b0110111)
(= |main::1::r!0@1#30$rclk$8| #b1110110)
(= |main::1::r!0@1#31$rclk$8| #b1110111)
(= |main::1::r!0@1#32$rclk$8| #b1111000)
(= |main::1::r!0@1#33$rclk$8| #b1111001)
(= |main::1::r!0@1#34$rclk$8| #b1111010)
(= |main::1::r!0@1#35$rclk$8| #b1111100)
(= |main::1::r!0@1#37$rclk$8| #b0010111)
(= |main::1::r!0@1#38$rclk$8| #b0011000)
(= |main::1::r!0@1#39$rclk$8| #b0011001)
(= |main::1::r!0@1#40$rclk$8| #b0110011)
(= |main::1::r!0@1#41$rclk$8| #b0110111)
(= |main::1::r!0@1#43$rclk$8| #b0111001)
(= |main::1::r!0@1#44$rclk$8| #b0111010)
(= |main::1::r!0@1#46$rclk$8| #b0111110)
(= |main::1::r!0@1#47$rclk$8| #b0111111)
(= |main::1::r!0@1#48$rclk$8| #b1111000)
(= |main::1::r!0@1#49$rclk$8| #b1111001)
(= |main::1::r!0@1#50$rclk$8| #b1111010)
(= |main::1::r!0@1#52$rclk$8| #b1111101)
(= |main::1::r!0@1#53$rclk$8| #b1111110)
(= |__CPROVER_threads_exited#3$wclk$8| #b1111111)
(= t1$16$spwnclk$8 #b0010011)
(= t1$20$spwnclk$8 #b0010110)
(= |__CPROVER_dead_object#1$wclk$8| #b0000000)
(= |__CPROVER_deallocated#1$wclk$8| #b0000001)
(= |__CPROVER_malloc_is_new_array#1$wclk$8| #b0000010)
(= |__CPROVER_malloc_object#1$wclk$8| #b0000011)
(= |__CPROVER_malloc_size#1$wclk$8| #b0000100)
(= |__CPROVER_memory_leak#1$wclk$8| #b0000101)
(= |__CPROVER_next_thread_id#1$wclk$8| #b0000110)
(= |__CPROVER_pipe_count#1$wclk$8| #b0000111)
(= |main::1::reader!0@1#1$wclk$8| #b0001001)
(= |main::1::writer!0@1#1$wclk$8| #b0001010)
(= |__CPROVER_next_thread_id#2$wclk$8| #b0001110)
(= |main::1::reader!0@1#2$wclk$8| #b0001111)
(= |__CPROVER_next_thread_id#3$rclk$8| #b0010100)
(= |__CPROVER_next_thread_id#5$wclk$8| #b0010100)
(= |main::1::writer!0@1#2$wclk$8| #b0010101)
(= array_of.0 @fun_23)
(= array.1 @fun_17)
(= |__CPROVER_threads_exited#2| @fun_25)
(function @fun_23
 (type (Array (_ BitVec 32) (_ BitVec 1)))
 (default #b0))
(function @fun_17
 (type (Array (_ BitVec 32) (_ BitVec 32)))
 (default #b00000000000000000000000000000000))
(function @fun_25
 (type (Array (_ BitVec 32) (_ BitVec 1)))
 (default #b1))

real	0m1.876s
user	0m1.858s
sys	0m0.014s
State: AC Run_time: 1.8776493072509766